Maximize

Subject to


sv_addi0 >= 0.000000
sv_br1 >= 0.000000
sv_br2 >= 0.000000
sv_cmpi0 >= 0.000000
sv_cond_br1 >= 0.000000
sv_cond_br2 >= 0.000000
sv_cond_br3 >= 0.000000
sv_constant1 >= 0.000000
sv_constant2 >= 0.000000
sv_constant5 >= 0.000000
sv_extui0 >= 0.000000
sv_extui1 >= 0.000000
sv_extui10 >= 0.000000
sv_extui11 >= 0.000000
sv_extui12 >= 0.000000
sv_extui13 >= 0.000000
sv_extui2 >= 0.000000
sv_extui3 >= 0.000000
sv_extui4 >= 0.000000
sv_extui5 >= 0.000000
sv_extui6 >= 0.000000
sv_extui7 >= 0.000000
sv_extui8 >= 0.000000
sv_extui9 >= 0.000000
sv_index_cast0 >= 0.000000
sv_index_cast1 >= 0.000000
sv_index_cast10 >= 0.000000
sv_index_cast11 >= 0.000000
sv_index_cast12 >= 0.000000
sv_index_cast13 >= 0.000000
sv_index_cast14 >= 0.000000
sv_index_cast15 >= 0.000000
sv_index_cast16 >= 0.000000
sv_index_cast17 >= 0.000000
sv_index_cast18 >= 0.000000
sv_index_cast19 >= 0.000000
sv_index_cast2 >= 0.000000
sv_index_cast20 >= 0.000000
sv_index_cast3 >= 0.000000
sv_index_cast4 >= 0.000000
sv_index_cast5 >= 0.000000
sv_index_cast6 >= 0.000000
sv_index_cast7 >= 0.000000
sv_index_cast8 >= 0.000000
sv_index_cast9 >= 0.000000
sv_load0 >= 0.000000
sv_load1 >= 0.000000
sv_load10 >= 0.000000
sv_load12 >= 0.000000
sv_load13 >= 0.000000
sv_load15 >= 0.000000
sv_load16 >= 0.000000
sv_load18 >= 0.000000
sv_load19 >= 0.000000
sv_load3 >= 0.000000
sv_load4 >= 0.000000
sv_load6 >= 0.000000
sv_load7 >= 0.000000
sv_load9 >= 0.000000
sv_muli0 >= 0.000000
sv_muli1 >= 0.000000
sv_muli2 >= 0.000000
sv_muli3 >= 0.000000
sv_muli4 >= 0.000000
sv_muli5 >= 0.000000
sv_muli6 >= 0.000000
sv_phi0 >= 0.000000
sv_phi1 >= 0.000000
sv_return1 >= 0.000000
sv_start0 >= 0.000000
sv_store11 >= 0.000000
sv_store14 >= 0.000000
sv_store17 >= 0.000000
sv_store2 >= 0.000000
sv_store20 >= 0.000000
sv_store5 >= 0.000000
sv_store8 >= 0.000000
General
sv_addi0 sv_br1 sv_br2 sv_cmpi0 sv_cond_br1 sv_cond_br2 sv_cond_br3 sv_constant1 sv_constant2 sv_constant5 sv_extui0 sv_extui1 sv_extui10 sv_extui11 sv_extui12 sv_extui13 sv_extui2 sv_extui3 sv_extui4 sv_extui5 sv_extui6 sv_extui7 sv_extui8 sv_extui9 sv_index_cast0 sv_index_cast1 sv_index_cast10 sv_index_cast11 sv_index_cast12 sv_index_cast13 sv_index_cast14 sv_index_cast15 sv_index_cast16 sv_index_cast17 sv_index_cast18 sv_index_cast19 sv_index_cast2 sv_index_cast20 sv_index_cast3 sv_index_cast4 sv_index_cast5 sv_index_cast6 sv_index_cast7 sv_index_cast8 sv_index_cast9 sv_load0 sv_load1 sv_load10 sv_load12 sv_load13 sv_load15 sv_load16 sv_load18 sv_load19 sv_load3 sv_load4 sv_load6 sv_load7 sv_load9 sv_muli0 sv_muli1 sv_muli2 sv_muli3 sv_muli4 sv_muli5 sv_muli6 sv_phi0 sv_phi1 sv_return1 sv_start0 sv_store11 sv_store14 sv_store17 sv_store2 sv_store20 sv_store5 sv_store8 

End
